
  22   10
  10   10   10   10   10   10   10   10   10   10

   0   0   0   0   0   0   0   0   0   0   0   4 2 5 6 10 
   1   0   0   0  10   0   0   0   0   0   0   2 21 3 
   4   0   0   0  10   0   0   0   0   0   0   1 4 
   1   0   0   0  10   0   0   0   0   0   0   2 20 7 
   5   0   0   0   0  10   0   0   0   0   0   3 20 19 8 
  10   0   0   0   0   0   0   0   0   0  10   3 20 19 8 
   7   0   0   0   0   0   0   0   0   0  10   2 19 8 
   2  10   0   0   0   0   0   0   0   0   0   1 9 
   9   0   0   0   0   0   0  10   0   0   0   3 18 16 11 
   2   0   0   0   0   0  10   0   0   0   0   4 21 16 15 13 
   3   0   0  10   0   0   0   0   0   0   0   3 17 15 12 
   9   0   0   0   0   0   0   0   0   0  10   1 13 
   7   0   0   0  10   0   0   0   0   0   0   1 14 
   7   0   0   0  10   0   0   0   0   0   0   1 22
   4   0   0   0   0  10   0   0   0   0   0   1 22
   5   0   0  10   0   0   0   0   0   0   0   1 22
   4   0   0   0   0   0   0   0  10   0   0   1 22
   9   0   0   0   0   0   0   0  10   0   0   1 22
   1   0   0  10   0   0   0   0   0   0   0   1 22
   9   0   0   0   0   0   0  10   0   0   0   1 22
   9   0   0   0   0   0  10   0   0   0   0   1 22
   0   0   0   0   0   0   0   0   0   0   0   0 
